
  17    0


   0   8 2 3 4 5 6 7 15 16 
   1   3 14 13 8 
   9   2 12 8 
   7   2 11 8 
   2   1 10 
   1   1 9 
   5   1 8 
   3   1 17
   7   1 17
   4   1 17
   7   1 17
   7   1 17
   2   1 17
   1   1 17
   9   1 17
  10   1 17
   0   0 
